--------------------------------------------------
s SATISFIABLE
benchmarks_SAT/INST_9x9/100/inst9x9_100_0.cnf : 11 ms.
--------------------------------------------------
s SATISFIABLE
benchmarks_SAT/INST_9x9/100/inst9x9_100_10.cnf : 12 ms.
--------------------------------------------------
s SATISFIABLE
benchmarks_SAT/INST_9x9/100/inst9x9_100_11.cnf : 9 ms.
--------------------------------------------------
s SATISFIABLE
benchmarks_SAT/INST_9x9/100/inst9x9_100_12.cnf : 9 ms.
--------------------------------------------------
s SATISFIABLE
benchmarks_SAT/INST_9x9/100/inst9x9_100_13.cnf : 8 ms.
--------------------------------------------------
s SATISFIABLE
benchmarks_SAT/INST_9x9/100/inst9x9_100_14.cnf : 12 ms.
--------------------------------------------------
s SATISFIABLE
benchmarks_SAT/INST_9x9/100/inst9x9_100_15.cnf : 7 ms.
--------------------------------------------------
s SATISFIABLE
benchmarks_SAT/INST_9x9/100/inst9x9_100_16.cnf : 12 ms.
--------------------------------------------------
s SATISFIABLE
benchmarks_SAT/INST_9x9/100/inst9x9_100_17.cnf : 8 ms.
--------------------------------------------------
s SATISFIABLE
benchmarks_SAT/INST_9x9/100/inst9x9_100_18.cnf : 9 ms.
--------------------------------------------------
s SATISFIABLE
benchmarks_SAT/INST_9x9/100/inst9x9_100_19.cnf : 8 ms.
--------------------------------------------------
s SATISFIABLE
benchmarks_SAT/INST_9x9/100/inst9x9_100_1.cnf : 8 ms.
--------------------------------------------------
s SATISFIABLE
benchmarks_SAT/INST_9x9/100/inst9x9_100_20.cnf : 8 ms.
--------------------------------------------------
s SATISFIABLE
benchmarks_SAT/INST_9x9/100/inst9x9_100_21.cnf : 8 ms.
--------------------------------------------------
s SATISFIABLE
benchmarks_SAT/INST_9x9/100/inst9x9_100_22.cnf : 10 ms.
--------------------------------------------------
s SATISFIABLE
benchmarks_SAT/INST_9x9/100/inst9x9_100_23.cnf : 8 ms.
--------------------------------------------------
s SATISFIABLE
benchmarks_SAT/INST_9x9/100/inst9x9_100_24.cnf : 7 ms.
--------------------------------------------------
s SATISFIABLE
benchmarks_SAT/INST_9x9/100/inst9x9_100_25.cnf : 7 ms.
--------------------------------------------------
s SATISFIABLE
benchmarks_SAT/INST_9x9/100/inst9x9_100_26.cnf : 7 ms.
--------------------------------------------------
s SATISFIABLE
benchmarks_SAT/INST_9x9/100/inst9x9_100_27.cnf : 8 ms.
--------------------------------------------------
s SATISFIABLE
benchmarks_SAT/INST_9x9/100/inst9x9_100_28.cnf : 8 ms.
--------------------------------------------------
s SATISFIABLE
benchmarks_SAT/INST_9x9/100/inst9x9_100_29.cnf : 8 ms.
--------------------------------------------------
s SATISFIABLE
benchmarks_SAT/INST_9x9/100/inst9x9_100_2.cnf : 8 ms.
--------------------------------------------------
s SATISFIABLE
benchmarks_SAT/INST_9x9/100/inst9x9_100_30.cnf : 8 ms.
--------------------------------------------------
s SATISFIABLE
benchmarks_SAT/INST_9x9/100/inst9x9_100_31.cnf : 8 ms.
--------------------------------------------------
s SATISFIABLE
benchmarks_SAT/INST_9x9/100/inst9x9_100_32.cnf : 7 ms.
--------------------------------------------------
s SATISFIABLE
benchmarks_SAT/INST_9x9/100/inst9x9_100_33.cnf : 7 ms.
--------------------------------------------------
s SATISFIABLE
benchmarks_SAT/INST_9x9/100/inst9x9_100_34.cnf : 8 ms.
--------------------------------------------------
s SATISFIABLE
benchmarks_SAT/INST_9x9/100/inst9x9_100_35.cnf : 7 ms.
--------------------------------------------------
s SATISFIABLE
benchmarks_SAT/INST_9x9/100/inst9x9_100_36.cnf : 8 ms.
--------------------------------------------------
s SATISFIABLE
benchmarks_SAT/INST_9x9/100/inst9x9_100_37.cnf : 8 ms.
--------------------------------------------------
s SATISFIABLE
benchmarks_SAT/INST_9x9/100/inst9x9_100_38.cnf : 8 ms.
--------------------------------------------------
s SATISFIABLE
benchmarks_SAT/INST_9x9/100/inst9x9_100_39.cnf : 7 ms.
--------------------------------------------------
s SATISFIABLE
benchmarks_SAT/INST_9x9/100/inst9x9_100_3.cnf : 9 ms.
--------------------------------------------------
s SATISFIABLE
benchmarks_SAT/INST_9x9/100/inst9x9_100_40.cnf : 9 ms.
--------------------------------------------------
s SATISFIABLE
benchmarks_SAT/INST_9x9/100/inst9x9_100_41.cnf : 7 ms.
--------------------------------------------------
s SATISFIABLE
benchmarks_SAT/INST_9x9/100/inst9x9_100_42.cnf : 8 ms.
--------------------------------------------------
s SATISFIABLE
benchmarks_SAT/INST_9x9/100/inst9x9_100_43.cnf : 8 ms.
--------------------------------------------------
s SATISFIABLE
benchmarks_SAT/INST_9x9/100/inst9x9_100_44.cnf : 7 ms.
--------------------------------------------------
s SATISFIABLE
benchmarks_SAT/INST_9x9/100/inst9x9_100_45.cnf : 7 ms.
--------------------------------------------------
s SATISFIABLE
benchmarks_SAT/INST_9x9/100/inst9x9_100_46.cnf : 8 ms.
--------------------------------------------------
s SATISFIABLE
benchmarks_SAT/INST_9x9/100/inst9x9_100_47.cnf : 8 ms.
--------------------------------------------------
s SATISFIABLE
benchmarks_SAT/INST_9x9/100/inst9x9_100_48.cnf : 8 ms.
--------------------------------------------------
s SATISFIABLE
benchmarks_SAT/INST_9x9/100/inst9x9_100_49.cnf : 9 ms.
--------------------------------------------------
s SATISFIABLE
benchmarks_SAT/INST_9x9/100/inst9x9_100_4.cnf : 8 ms.
--------------------------------------------------
s SATISFIABLE
benchmarks_SAT/INST_9x9/100/inst9x9_100_50.cnf : 9 ms.
--------------------------------------------------
s SATISFIABLE
benchmarks_SAT/INST_9x9/100/inst9x9_100_51.cnf : 8 ms.
--------------------------------------------------
s SATISFIABLE
benchmarks_SAT/INST_9x9/100/inst9x9_100_52.cnf : 8 ms.
--------------------------------------------------
s SATISFIABLE
benchmarks_SAT/INST_9x9/100/inst9x9_100_53.cnf : 8 ms.
--------------------------------------------------
s SATISFIABLE
benchmarks_SAT/INST_9x9/100/inst9x9_100_54.cnf : 7 ms.
--------------------------------------------------
s SATISFIABLE
benchmarks_SAT/INST_9x9/100/inst9x9_100_55.cnf : 8 ms.
--------------------------------------------------
s SATISFIABLE
benchmarks_SAT/INST_9x9/100/inst9x9_100_56.cnf : 8 ms.
--------------------------------------------------
s SATISFIABLE
benchmarks_SAT/INST_9x9/100/inst9x9_100_57.cnf : 8 ms.
--------------------------------------------------
s SATISFIABLE
benchmarks_SAT/INST_9x9/100/inst9x9_100_58.cnf : 10 ms.
--------------------------------------------------
s SATISFIABLE
benchmarks_SAT/INST_9x9/100/inst9x9_100_59.cnf : 8 ms.
--------------------------------------------------
s SATISFIABLE
benchmarks_SAT/INST_9x9/100/inst9x9_100_5.cnf : 8 ms.
--------------------------------------------------
s SATISFIABLE
benchmarks_SAT/INST_9x9/100/inst9x9_100_60.cnf : 7 ms.
--------------------------------------------------
s SATISFIABLE
benchmarks_SAT/INST_9x9/100/inst9x9_100_61.cnf : 9 ms.
--------------------------------------------------
s SATISFIABLE
benchmarks_SAT/INST_9x9/100/inst9x9_100_62.cnf : 8 ms.
--------------------------------------------------
s SATISFIABLE
benchmarks_SAT/INST_9x9/100/inst9x9_100_63.cnf : 9 ms.
--------------------------------------------------
s SATISFIABLE
benchmarks_SAT/INST_9x9/100/inst9x9_100_64.cnf : 8 ms.
--------------------------------------------------
s SATISFIABLE
benchmarks_SAT/INST_9x9/100/inst9x9_100_65.cnf : 7 ms.
--------------------------------------------------
s SATISFIABLE
benchmarks_SAT/INST_9x9/100/inst9x9_100_66.cnf : 7 ms.
--------------------------------------------------
s SATISFIABLE
benchmarks_SAT/INST_9x9/100/inst9x9_100_67.cnf : 7 ms.
--------------------------------------------------
s SATISFIABLE
benchmarks_SAT/INST_9x9/100/inst9x9_100_68.cnf : 7 ms.
--------------------------------------------------
s SATISFIABLE
benchmarks_SAT/INST_9x9/100/inst9x9_100_69.cnf : 8 ms.
--------------------------------------------------
s SATISFIABLE
benchmarks_SAT/INST_9x9/100/inst9x9_100_6.cnf : 7 ms.
--------------------------------------------------
s SATISFIABLE
benchmarks_SAT/INST_9x9/100/inst9x9_100_70.cnf : 8 ms.
--------------------------------------------------
s SATISFIABLE
benchmarks_SAT/INST_9x9/100/inst9x9_100_71.cnf : 8 ms.
--------------------------------------------------
s SATISFIABLE
benchmarks_SAT/INST_9x9/100/inst9x9_100_72.cnf : 8 ms.
--------------------------------------------------
s SATISFIABLE
benchmarks_SAT/INST_9x9/100/inst9x9_100_73.cnf : 7 ms.
--------------------------------------------------
s SATISFIABLE
benchmarks_SAT/INST_9x9/100/inst9x9_100_74.cnf : 8 ms.
--------------------------------------------------
s SATISFIABLE
benchmarks_SAT/INST_9x9/100/inst9x9_100_75.cnf : 7 ms.
--------------------------------------------------
s SATISFIABLE
benchmarks_SAT/INST_9x9/100/inst9x9_100_76.cnf : 8 ms.
--------------------------------------------------
s SATISFIABLE
benchmarks_SAT/INST_9x9/100/inst9x9_100_77.cnf : 8 ms.
--------------------------------------------------
s SATISFIABLE
benchmarks_SAT/INST_9x9/100/inst9x9_100_78.cnf : 10 ms.
--------------------------------------------------
s SATISFIABLE
benchmarks_SAT/INST_9x9/100/inst9x9_100_79.cnf : 10 ms.
--------------------------------------------------
s SATISFIABLE
benchmarks_SAT/INST_9x9/100/inst9x9_100_7.cnf : 7 ms.
--------------------------------------------------
s SATISFIABLE
benchmarks_SAT/INST_9x9/100/inst9x9_100_80.cnf : 8 ms.
--------------------------------------------------
s SATISFIABLE
benchmarks_SAT/INST_9x9/100/inst9x9_100_81.cnf : 8 ms.
--------------------------------------------------
s SATISFIABLE
benchmarks_SAT/INST_9x9/100/inst9x9_100_82.cnf : 9 ms.
--------------------------------------------------
s SATISFIABLE
benchmarks_SAT/INST_9x9/100/inst9x9_100_83.cnf : 7 ms.
--------------------------------------------------
s SATISFIABLE
benchmarks_SAT/INST_9x9/100/inst9x9_100_84.cnf : 8 ms.
--------------------------------------------------
s SATISFIABLE
benchmarks_SAT/INST_9x9/100/inst9x9_100_85.cnf : 8 ms.
--------------------------------------------------
s SATISFIABLE
benchmarks_SAT/INST_9x9/100/inst9x9_100_86.cnf : 8 ms.
--------------------------------------------------
s SATISFIABLE
benchmarks_SAT/INST_9x9/100/inst9x9_100_87.cnf : 8 ms.
--------------------------------------------------
s SATISFIABLE
benchmarks_SAT/INST_9x9/100/inst9x9_100_88.cnf : 7 ms.
--------------------------------------------------
s SATISFIABLE
benchmarks_SAT/INST_9x9/100/inst9x9_100_89.cnf : 8 ms.
--------------------------------------------------
s SATISFIABLE
benchmarks_SAT/INST_9x9/100/inst9x9_100_8.cnf : 7 ms.
--------------------------------------------------
s SATISFIABLE
benchmarks_SAT/INST_9x9/100/inst9x9_100_90.cnf : 9 ms.
--------------------------------------------------
s SATISFIABLE
benchmarks_SAT/INST_9x9/100/inst9x9_100_91.cnf : 7 ms.
--------------------------------------------------
s SATISFIABLE
benchmarks_SAT/INST_9x9/100/inst9x9_100_92.cnf : 8 ms.
--------------------------------------------------
s SATISFIABLE
benchmarks_SAT/INST_9x9/100/inst9x9_100_93.cnf : 8 ms.
--------------------------------------------------
s SATISFIABLE
benchmarks_SAT/INST_9x9/100/inst9x9_100_94.cnf : 9 ms.
--------------------------------------------------
s SATISFIABLE
benchmarks_SAT/INST_9x9/100/inst9x9_100_95.cnf : 7 ms.
--------------------------------------------------
s SATISFIABLE
benchmarks_SAT/INST_9x9/100/inst9x9_100_96.cnf : 8 ms.
--------------------------------------------------
s SATISFIABLE
benchmarks_SAT/INST_9x9/100/inst9x9_100_97.cnf : 8 ms.
--------------------------------------------------
s SATISFIABLE
benchmarks_SAT/INST_9x9/100/inst9x9_100_98.cnf : 7 ms.
--------------------------------------------------
s SATISFIABLE
benchmarks_SAT/INST_9x9/100/inst9x9_100_99.cnf : 9 ms.
--------------------------------------------------
s SATISFIABLE
benchmarks_SAT/INST_9x9/100/inst9x9_100_9.cnf : 8 ms.
